c Reduced graph for GEOM60a_2 generated by Cyril Grelier
p edge 50 281
e 1 2
e 1 7
e 1 8
e 1 9
e 1 10
e 1 22
e 1 23
e 1 24
e 1 25
e 1 27
e 1 32
e 1 37
e 1 38
e 1 42
e 1 44
e 1 45
e 1 49
e 2 8
e 2 9
e 2 10
e 2 22
e 2 25
e 2 27
e 2 31
e 2 32
e 2 37
e 2 38
e 2 39
e 2 42
e 2 45
e 2 49
e 2 50
e 3 19
e 3 20
e 3 28
e 3 29
e 3 30
e 3 33
e 3 34
e 3 35
e 3 41
e 3 43
e 3 46
e 4 8
e 4 9
e 4 12
e 4 21
e 4 27
e 4 32
e 4 37
e 4 42
e 4 45
e 5 13
e 5 16
e 5 17
e 5 18
e 5 36
e 5 40
e 5 41
e 5 48
e 6 11
e 6 14
e 6 16
e 6 17
e 6 18
e 6 26
e 6 40
e 6 47
e 7 10
e 7 23
e 7 27
e 7 44
e 7 45
e 7 49
e 8 9
e 8 12
e 8 21
e 8 25
e 8 27
e 8 32
e 8 37
e 8 38
e 8 42
e 8 45
e 8 49
e 8 50
e 9 10
e 9 12
e 9 21
e 9 23
e 9 27
e 9 32
e 9 37
e 9 42
e 9 45
e 10 23
e 10 27
e 10 32
e 10 37
e 10 38
e 10 42
e 10 45
e 10 49
e 11 14
e 11 15
e 11 16
e 11 17
e 11 18
e 11 26
e 11 31
e 11 39
e 11 40
e 11 47
e 12 21
e 12 23
e 12 27
e 12 32
e 12 37
e 12 42
e 12 45
e 13 28
e 13 36
e 13 40
e 13 41
e 13 43
e 13 46
e 13 48
e 14 16
e 14 17
e 14 18
e 14 26
e 14 40
e 14 47
e 15 16
e 15 26
e 15 31
e 15 39
e 15 47
e 15 50
e 16 17
e 16 18
e 16 25
e 16 26
e 16 31
e 16 39
e 16 40
e 16 47
e 16 50
e 17 18
e 17 26
e 17 31
e 17 36
e 17 39
e 17 40
e 17 47
e 17 48
e 18 26
e 18 36
e 18 39
e 18 40
e 18 47
e 18 48
e 19 20
e 19 24
e 19 28
e 19 29
e 19 30
e 19 33
e 19 34
e 19 35
e 19 44
e 19 46
e 20 28
e 20 29
e 20 30
e 20 33
e 20 34
e 20 35
e 20 43
e 20 46
e 21 27
e 21 32
e 21 37
e 21 42
e 21 45
e 22 24
e 22 25
e 22 32
e 22 38
e 22 44
e 22 49
e 23 27
e 23 45
e 23 49
e 24 38
e 24 44
e 24 49
e 25 26
e 25 31
e 25 32
e 25 37
e 25 38
e 25 39
e 25 42
e 25 45
e 25 49
e 25 50
e 26 31
e 26 39
e 26 47
e 26 50
e 27 32
e 27 37
e 27 42
e 27 45
e 27 49
e 28 29
e 28 30
e 28 33
e 28 34
e 28 35
e 28 41
e 28 43
e 28 46
e 28 48
e 29 30
e 29 33
e 29 34
e 29 35
e 29 41
e 29 43
e 29 46
e 30 33
e 30 34
e 30 35
e 30 41
e 30 43
e 30 46
e 31 39
e 31 47
e 31 50
e 32 37
e 32 38
e 32 42
e 32 45
e 32 49
e 32 50
e 33 34
e 33 35
e 33 43
e 33 46
e 34 35
e 34 43
e 34 46
e 36 40
e 36 41
e 36 48
e 37 38
e 37 42
e 37 45
e 37 49
e 37 50
e 38 39
e 38 42
e 38 44
e 38 45
e 38 49
e 39 47
e 39 50
e 40 47
e 40 48
e 41 43
e 41 46
e 41 48
e 42 45
e 42 49
e 42 50
e 43 46
e 44 49
e 45 49
e 46 48
